
n_res = 6;
rcap = [35, 36, 36, 39, 930, 823];
rtype = [1, 1, 1, 1, 2, 2];
n_tasks = 50;
modes =  [{1, 2, 3, 4, 5, 6}, {7, 8, 9, 10, 11, 12}, {13, 14, 15, 16, 17, 18}, {19, 20, 21, 22, 23, 24}, {25, 26, 27, 28, 29, 30}, {31, 32, 33, 34, 35, 36}, {37, 38, 39, 40, 41, 42}, {43, 44, 45, 46, 47, 48}, {49, 50, 51, 52, 53, 54}, {55, 56, 57, 58, 59, 60}, {61, 62, 63, 64, 65, 66}, {67, 68, 69, 70, 71, 72}, {73, 74, 75, 76, 77, 78}, {79, 80, 81, 82, 83, 84}, {85, 86, 87, 88, 89, 90}, {91, 92, 93, 94, 95, 96}, {97, 98, 99, 100, 101, 102}, {103, 104, 105, 106, 107, 108}, {109, 110, 111, 112, 113, 114}, {115, 116, 117, 118, 119, 120}, {121, 122, 123, 124, 125, 126}, {127, 128, 129, 130, 131, 132}, {133, 134, 135, 136, 137, 138}, {139, 140, 141, 142, 143, 144}, {145, 146, 147, 148, 149, 150}, {151, 152, 153, 154, 155, 156}, {157, 158, 159, 160, 161, 162}, {163, 164, 165, 166, 167, 168}, {169, 170, 171, 172, 173, 174}, {175, 176, 177, 178, 179, 180}, {181, 182, 183, 184, 185, 186}, {187, 188, 189, 190, 191, 192}, {193, 194, 195, 196, 197, 198}, {199, 200, 201, 202, 203, 204}, {205, 206, 207, 208, 209, 210}, {211, 212, 213, 214, 215, 216}, {217, 218, 219, 220, 221, 222}, {223, 224, 225, 226, 227, 228}, {229, 230, 231, 232, 233, 234}, {235, 236, 237, 238, 239, 240}, {241, 242, 243, 244, 245, 246}, {247, 248, 249, 250, 251, 252}, {253, 254, 255, 256, 257, 258}, {259, 260, 261, 262, 263, 264}, {265, 266, 267, 268, 269, 270}, {271, 272, 273, 274, 275, 276}, {277, 278, 279, 280, 281, 282}, {283, 284, 285, 286, 287, 288}, {289, 290, 291, 292, 293, 294}, {295, 296, 297, 298, 299, 300}];
succ =  [{50, 27, 24, 20, 18, 14, 8, 3}, {49, 44, 36, 35, 23, 22, 20, 17, 15, 12, 11}, {49, 48, 35, 19, 17, 12, 9, 7}, {50, 49, 48, 47, 46, 45, 43, 42, 36, 35, 34, 33, 23}, {48, 47, 46, 44, 43, 41, 38, 37, 35, 28, 23}, {50, 49, 45, 43, 42, 41, 35, 34, 28, 26, 23}, {46, 45, 44, 42, 36, 34, 33, 23, 22}, {46, 45, 44, 43, 41, 37, 32, 28, 17}, {45, 44, 43, 42, 41, 37, 34, 33, 26, 23}, {48, 47, 45, 44, 43, 42, 41, 32, 31, 28}, {47, 46, 45, 43, 41, 32, 28, 27}, {47, 45, 41, 37, 33, 31, 26}, {46, 44, 43, 36, 35, 32, 31}, {48, 46, 43, 41, 31, 28}, {48, 47, 46, 42, 40, 33}, {44, 42, 38, 27}, {42, 34, 33, 31}, {45, 44, 41, 40, 39}, {45, 44, 42, 36}, {43, 32, 28}, {44, 42, 28}, {43, 41, 40, 39}, {32, 31}, {45, 42, 39}, {43, 42, 39}, {40, 32}, {39, 31}, {40, 39}, {44, 42}, {42, 41}, {40}, {39}, {39}, {39}, {39}, {41}, {39}, {40}, {}, {}, {}, {}, {}, {}, {}, {}, {}, {}, {}, {}];
n_opt = 300;
dur = [8, 11, 17, 25, 27, 28, 2, 12, 18, 23, 25, 30, 4, 24, 25, 26, 29, 30, 12, 17, 18, 19, 20, 28, 3, 11, 14, 15, 18, 24, 1, 6, 8, 9, 11, 29, 7, 11, 12, 16, 23, 30, 5, 20, 24, 28, 29, 30, 1, 7, 12, 19, 21, 23, 4, 6, 8, 10, 19, 24, 9, 11, 12, 19, 20, 21, 4, 5, 7, 9, 23, 26, 14, 17, 21, 22, 26, 27, 11, 14, 16, 18, 21, 25, 1, 6, 12, 19, 23, 28, 7, 10, 11, 17, 26, 28, 7, 8, 16, 17, 25, 30, 3, 7, 9, 13, 16, 27, 7, 8, 11, 15, 22, 24, 3, 5, 11, 15, 27, 28, 12, 14, 15, 20, 27, 28, 3, 4, 20, 21, 22, 24, 6, 15, 20, 21, 23, 25, 6, 7, 15, 18, 19, 24, 10, 15, 16, 17, 28, 29, 2, 6, 12, 15, 18, 29, 2, 5, 15, 16, 25, 29, 1, 6, 7, 14, 24, 30, 2, 8, 9, 10, 27, 29, 1, 5, 17, 18, 22, 25, 6, 9, 18, 19, 20, 26, 12, 15, 18, 19, 22, 29, 7, 22, 24, 25, 26, 27, 1, 9, 17, 18, 22, 23, 10, 18, 19, 26, 27, 29, 1, 9, 12, 17, 21, 24, 11, 12, 14, 27, 29, 30, 3, 5, 6, 19, 27, 28, 7, 8, 14, 18, 21, 28, 1, 5, 8, 10, 15, 19, 2, 6, 14, 16, 18, 28, 7, 8, 14, 16, 17, 28, 3, 14, 15, 22, 26, 28, 4, 7, 8, 9, 14, 18, 9, 12, 14, 16, 18, 27, 14, 16, 19, 23, 26, 30, 11, 16, 17, 19, 22, 24, 5, 7, 15, 18, 20, 29, 3, 8, 9, 15, 18, 27, 12, 13, 14, 15, 19, 20];
rreq = [|3, 2, 2, 1, 1, 1, 2, 1, 1, 1, 1, 1, 5, 3, 3, 2, 1, 1, 4, 4, 3, 3, 1, 1, 1, 1, 1, 1, 1, 1, 1, 1, 1, 1, 1, 1, 4, 4, 4, 3, 3, 3, 4, 4, 4, 4, 4, 4, 5, 4, 3, 3, 1, 1, 2, 2, 2, 2, 2, 2, 2, 2, 2, 2, 2, 2, 2, 2, 2, 2, 2, 2, 3, 3, 3, 3, 3, 3, 4, 4, 3, 3, 1, 1, 5, 4, 4, 4, 3, 3, 5, 4, 3, 2, 1, 1, 4, 4, 3, 3, 2, 2, 3, 2, 2, 2, 2, 2, 4, 3, 3, 2, 1, 1, 3, 3, 2, 2, 2, 1, 4, 3, 2, 2, 2, 1, 5, 4, 4, 3, 3, 3, 3, 3, 3, 3, 3, 3, 4, 4, 3, 3, 3, 2, 4, 4, 4, 3, 3, 2, 2, 2, 2, 2, 2, 2, 1, 1, 1, 1, 1, 1, 1, 1, 1, 1, 1, 1, 2, 2, 2, 2, 2, 2, 3, 3, 3, 2, 2, 2, 3, 3, 3, 2, 2, 2, 4, 3, 3, 3, 3, 3, 4, 4, 4, 4, 4, 4, 3, 2, 2, 2, 2, 2, 2, 1, 1, 1, 1, 1, 4, 4, 4, 4, 4, 4, 3, 3, 3, 2, 2, 2, 4, 3, 3, 2, 2, 1, 5, 4, 4, 4, 3, 3, 2, 2, 2, 2, 2, 2, 3, 2, 2, 2, 2, 2, 3, 3, 3, 2, 1, 1, 3, 2, 2, 1, 1, 1, 5, 4, 4, 4, 4, 4, 4, 4, 4, 3, 2, 2, 3, 3, 3, 3, 2, 2, 3, 2, 2, 2, 1, 1, 4, 3, 3, 2, 2, 2, 1, 1, 1, 1, 1, 1, 3, 3, 3, 3, 2, 2
 |4, 3, 3, 2, 1, 1, 4, 3, 3, 3, 2, 2, 3, 3, 3, 3, 3, 3, 4, 4, 4, 3, 3, 2, 3, 2, 2, 1, 1, 1, 3, 2, 2, 2, 2, 2, 3, 2, 2, 1, 1, 1, 5, 4, 4, 4, 3, 3, 4, 3, 3, 2, 2, 1, 4, 3, 2, 2, 1, 1, 4, 3, 3, 2, 2, 1, 5, 4, 4, 4, 4, 4, 1, 1, 1, 1, 1, 1, 4, 3, 3, 2, 2, 1, 5, 4, 3, 3, 3, 2, 5, 4, 4, 4, 3, 3, 4, 4, 3, 2, 1, 1, 3, 2, 2, 2, 1, 1, 4, 4, 4, 4, 3, 3, 3, 3, 3, 3, 3, 3, 4, 4, 4, 4, 3, 3, 3, 2, 2, 2, 1, 1, 1, 1, 1, 1, 1, 1, 4, 4, 3, 3, 3, 2, 2, 1, 1, 1, 1, 1, 2, 1, 1, 1, 1, 1, 3, 3, 3, 3, 3, 3, 4, 4, 4, 4, 4, 4, 3, 2, 2, 1, 1, 1, 4, 3, 3, 3, 3, 3, 3, 2, 2, 2, 2, 2, 1, 1, 1, 1, 1, 1, 4, 3, 3, 2, 2, 2, 5, 4, 4, 4, 3, 3, 4, 4, 4, 4, 3, 3, 4, 4, 4, 4, 4, 4, 4, 4, 3, 3, 1, 1, 4, 4, 4, 4, 4, 4, 3, 3, 3, 2, 2, 2, 1, 1, 1, 1, 1, 1, 3, 2, 2, 1, 1, 1, 2, 2, 2, 1, 1, 1, 4, 4, 4, 4, 4, 4, 5, 5, 5, 5, 5, 5, 1, 1, 1, 1, 1, 1, 4, 3, 3, 3, 2, 2, 5, 4, 4, 4, 3, 3, 3, 3, 3, 2, 1, 1, 3, 3, 2, 2, 1, 1, 5, 5, 5, 5, 5, 5
 |2, 1, 1, 1, 1, 1, 2, 2, 2, 2, 2, 2, 3, 2, 2, 1, 1, 1, 3, 3, 3, 3, 3, 3, 2, 1, 1, 1, 1, 1, 5, 4, 3, 2, 1, 1, 3, 3, 3, 2, 2, 2, 2, 2, 2, 1, 1, 1, 4, 3, 3, 2, 2, 2, 4, 4, 4, 4, 4, 4, 5, 4, 3, 3, 2, 2, 5, 4, 3, 2, 2, 1, 3, 2, 2, 1, 1, 1, 4, 4, 4, 3, 3, 3, 2, 2, 2, 2, 2, 2, 3, 3, 3, 3, 3, 3, 4, 3, 3, 3, 3, 3, 2, 1, 1, 1, 1, 1, 5, 4, 4, 4, 3, 3, 3, 3, 3, 3, 3, 3, 4, 3, 3, 3, 3, 3, 4, 4, 4, 4, 4, 4, 3, 3, 3, 3, 3, 3, 2, 2, 2, 2, 2, 2, 5, 5, 5, 5, 5, 5, 4, 3, 3, 3, 3, 3, 3, 2, 2, 1, 1, 1, 4, 3, 2, 2, 1, 1, 4, 3, 3, 2, 2, 2, 4, 4, 3, 3, 2, 2, 5, 4, 3, 3, 2, 2, 4, 4, 3, 2, 2, 1, 4, 3, 3, 2, 2, 1, 3, 2, 2, 2, 1, 1, 1, 1, 1, 1, 1, 1, 4, 3, 2, 2, 1, 1, 3, 3, 3, 3, 3, 3, 3, 3, 2, 2, 2, 1, 5, 4, 3, 3, 3, 2, 4, 3, 3, 3, 2, 1, 3, 2, 2, 1, 1, 1, 4, 3, 3, 3, 3, 3, 2, 1, 1, 1, 1, 1, 4, 3, 3, 2, 1, 1, 4, 3, 3, 3, 2, 2, 3, 2, 2, 2, 2, 2, 4, 4, 4, 3, 3, 3, 5, 3, 3, 2, 2, 1, 1, 1, 1, 1, 1, 1, 4, 4, 4, 4, 4, 4
 |2, 2, 2, 2, 2, 2, 1, 1, 1, 1, 1, 1, 4, 4, 4, 3, 3, 3, 5, 5, 5, 5, 5, 5, 3, 3, 3, 3, 2, 2, 5, 4, 4, 3, 3, 3, 5, 3, 3, 3, 1, 1, 3, 2, 2, 2, 1, 1, 4, 3, 3, 2, 2, 2, 4, 3, 2, 2, 1, 1, 4, 4, 3, 3, 2, 2, 4, 4, 4, 3, 2, 2, 5, 4, 4, 3, 3, 3, 1, 1, 1, 1, 1, 1, 3, 3, 3, 3, 3, 3, 1, 1, 1, 1, 1, 1, 4, 3, 3, 3, 3, 3, 2, 2, 2, 2, 2, 2, 4, 3, 3, 3, 3, 3, 5, 4, 3, 3, 1, 1, 1, 1, 1, 1, 1, 1, 3, 3, 3, 3, 3, 3, 3, 3, 3, 2, 2, 2, 4, 3, 3, 3, 2, 2, 3, 3, 3, 3, 3, 3, 4, 3, 3, 3, 3, 3, 4, 3, 3, 3, 2, 2, 5, 4, 4, 4, 3, 3, 5, 4, 3, 2, 1, 1, 2, 1, 1, 1, 1, 1, 2, 2, 2, 2, 2, 2, 5, 4, 3, 2, 2, 1, 2, 1, 1, 1, 1, 1, 5, 4, 4, 4, 4, 4, 4, 3, 2, 2, 1, 1, 5, 5, 5, 5, 5, 5, 5, 4, 3, 2, 2, 1, 2, 2, 2, 2, 2, 2, 4, 3, 3, 3, 3, 3, 4, 3, 3, 3, 2, 2, 5, 4, 3, 3, 2, 1, 4, 3, 3, 3, 3, 3, 2, 2, 2, 2, 2, 2, 3, 3, 3, 3, 3, 3, 5, 4, 3, 3, 2, 2, 3, 2, 2, 2, 1, 1, 3, 2, 2, 1, 1, 1, 5, 4, 4, 3, 2, 2, 3, 3, 3, 3, 2, 2, 3, 2, 2, 2, 2, 2
 |20, 19, 17, 13, 13, 9, 25, 24, 21, 19, 15, 13, 25, 24, 24, 22, 19, 19, 26, 26, 24, 22, 19, 16, 8, 8, 8, 8, 8, 8, 22, 22, 22, 22, 22, 22, 14, 14, 14, 14, 13, 13, 22, 20, 17, 13, 12, 8, 19, 15, 14, 10, 8, 3, 26, 22, 22, 17, 14, 13, 9, 9, 8, 8, 8, 7, 18, 14, 12, 11, 10, 8, 13, 10, 8, 5, 4, 3, 20, 19, 19, 19, 19, 19, 25, 21, 18, 18, 16, 13, 22, 19, 14, 10, 7, 4, 26, 25, 24, 24, 24, 23, 27, 26, 22, 16, 14, 13, 25, 22, 19, 17, 12, 8, 26, 23, 21, 21, 17, 16, 23, 23, 18, 15, 8, 3, 25, 19, 19, 13, 10, 8, 27, 25, 23, 21, 19, 19, 27, 26, 26, 26, 26, 26, 12, 10, 7, 6, 3, 2, 3, 3, 3, 3, 2, 2, 10, 9, 9, 9, 9, 9, 25, 17, 16, 12, 9, 2, 18, 18, 18, 18, 18, 18, 22, 18, 16, 14, 13, 9, 28, 23, 20, 15, 11, 8, 18, 17, 15, 12, 10, 9, 25, 22, 19, 17, 10, 7, 29, 29, 28, 27, 27, 26, 29, 25, 19, 17, 12, 12, 12, 11, 11, 11, 9, 9, 27, 27, 27, 26, 25, 25, 17, 17, 15, 13, 13, 11, 23, 21, 18, 17, 11, 10, 25, 23, 20, 19, 17, 13, 18, 18, 17, 17, 16, 16, 27, 25, 18, 13, 11, 4, 26, 25, 24, 22, 21, 21, 29, 22, 18, 15, 11, 10, 30, 29, 27, 26, 25, 24, 17, 15, 14, 11, 10, 8, 9, 8, 7, 7, 6, 5, 25, 19, 15, 10, 9, 4, 9, 8, 6, 5, 4, 4, 17, 15, 15, 14, 13, 11
 |28, 24, 21, 17, 11, 11, 13, 13, 9, 9, 6, 4, 29, 29, 28, 26, 26, 25, 24, 23, 23, 23, 23, 23, 8, 8, 7, 6, 5, 4, 9, 8, 8, 8, 8, 7, 10, 10, 9, 10, 10, 9, 8, 7, 5, 4, 2, 2, 22, 21, 21, 21, 19, 19, 27, 26, 24, 21, 21, 19, 18, 14, 14, 10, 9, 8, 22, 16, 15, 11, 5, 4, 12, 11, 11, 10, 10, 10, 13, 13, 12, 12, 11, 10, 25, 23, 18, 13, 12, 9, 26, 24, 21, 19, 14, 14, 24, 24, 22, 19, 14, 12, 8, 6, 5, 4, 3, 3, 15, 14, 13, 11, 10, 10, 17, 14, 9, 7, 4, 4, 5, 4, 4, 4, 4, 4, 20, 19, 18, 15, 15, 12, 18, 18, 18, 18, 18, 17, 29, 29, 29, 28, 29, 29, 6, 5, 5, 4, 3, 3, 25, 21, 20, 17, 10, 7, 14, 14, 12, 11, 10, 9, 14, 11, 11, 9, 8, 7, 19, 17, 16, 14, 13, 11, 17, 17, 12, 9, 6, 2, 8, 8, 8, 8, 7, 7, 27, 24, 22, 20, 14, 12, 18, 16, 16, 15, 14, 14, 16, 14, 14, 12, 9, 9, 10, 9, 7, 7, 5, 4, 18, 17, 17, 16, 17, 16, 16, 16, 16, 16, 16, 16, 26, 22, 18, 17, 15, 8, 24, 22, 17, 14, 11, 10, 24, 19, 19, 16, 13, 7, 19, 18, 17, 16, 15, 14, 24, 22, 22, 21, 20, 20, 17, 15, 15, 11, 10, 7, 13, 12, 12, 12, 12, 12, 26, 21, 21, 18, 15, 10, 20, 20, 14, 13, 8, 6, 17, 15, 13, 11, 9, 9, 26, 22, 20, 16, 12, 9, 21, 20, 20, 19, 18, 17, 26, 23, 18, 16, 12, 10|];